/* Objective function */
min: +C17 +C18 +C19 +C20 +C21 +C22 +C23 +C24 +C25 +C26 +C27 +C28 +C29 +C30 +C31 +C32;

/* Constraints */
R1: +C1 >= 0.001;
R2: +C2 >= 0.001;
R3: +C3 = 0;
R4: +C4 >= 0.001;
R5: +C5 >= 0.001;
R6: +C6 >= 0.001;
R7: +C7 >= 0.001;
R8: +C8 = 0;
R9: +C9 = 0;
R10: +C10 >= 0.001;
R11: +C11 >= 0.001;
R12: +C12 >= 0.001;
R13: +C13 >= 0.001;
R14: +C14 = 0;
R15: +C15 >= 0.001;
R16: +C16 >= 0.001;
+C1 -C17 <= 0.333333333333;
+C1 +C17 >= 0.333333333333;
+C2 -C18 <= 0.333333333333;
+C2 +C18 >= 0.333333333333;
+C4 -C20 <= 0.333333333333;
+C4 +C20 >= 0.333333333333;
+C5 -C21 <= 0.333333333333;
+C5 +C21 >= 0.333333333333;
+C6 -C22 <= 0.333333333333;
+C6 +C22 >= 0.333333333333;
+C7 -C23 <= 0.333333333333;
+C7 +C23 >= 0.333333333333;
+C10 -C26 <= 0.333333333333;
+C10 +C26 >= 0.333333333333;
+C11 -C27 <= 0.333333333333;
+C11 +C27 >= 0.333333333333;
+C12 -C28 <= 0.333333333333;
+C12 +C28 >= 0.333333333333;
+C13 -C29 <= 0.333333333333;
+C13 +C29 >= 0.333333333333;
+C15 -C31 <= 0.333333333333;
+C15 +C31 >= 0.333333333333;
+C16 -C32 <= 0.333333333333;
+C16 +C32 >= 0.333333333333;
+C1 +C5 +C9 +C13 = 1;
+C2 +C6 +C10 +C14 = 1;
+C3 +C7 +C11 +C15 = 1;
+C4 +C8 +C12 +C16 = 1;
+0.3 C1 +0.2 C2 +0.4 C3 +0.1 C4 = 0.3;
+0.3 C5 +0.2 C6 +0.4 C7 +0.1 C8 = 0.2;
+0.3 C9 +0.2 C10 +0.4 C11 +0.1 C12 = 0.4;
+0.3 C13 +0.2 C14 +0.4 C15 +0.1 C16 = 0.1;
+0.2 C2 +0.4 C3 +0.1 C4 -0.3 C5 -0.3 C9 -0.3 C13 = 0;
-0.2 C2 +0.3 C5 +0.4 C7 +0.1 C8 -0.2 C10 -0.2 C14 = 0;
-0.4 C3 -0.4 C7 +0.3 C9 +0.2 C10 +0.1 C12 -0.4 C15 = 0;
-0.1 C4 -0.1 C8 -0.1 C12 +0.3 C13 +0.2 C14 +0.4 C15 = 0;
